(declare-fun var76923 () (_ BitVec 64))
(declare-fun ARGNAME_i1_NAMEEND_DIM () (_ BitVec 64))
(declare-fun ARGNAME_expand1_NAMEEND_LEN () (_ BitVec 64))
(declare-fun var76924 () (_ BitVec 64))
(declare-fun ARGNAME_unroll_dim_NAMEEND () (_ BitVec 64))
(declare-fun var76925 () (_ BitVec 64))
(declare-fun temp559_1 () (_ BitVec 64))
(declare-fun var76926 () (_ BitVec 64))
(declare-fun var76927 () (_ BitVec 64))
(declare-fun temp559_2 () (_ BitVec 64))
(declare-fun temp559_3 () (_ BitVec 64))
(declare-fun var76928 () (_ BitVec 64))
(declare-fun k!0 () (_ BitVec 64))
(declare-fun k!1 () Bool)
(declare-fun var269666 () (_ BitVec 64))
(declare-fun temp559_4 () (_ BitVec 64))
(declare-fun var269695 () (_ BitVec 64))
(declare-fun temp559_5 () (_ BitVec 64))
(declare-fun temp559_7 () (_ BitVec 64))
(declare-fun temp559_6 () (_ BitVec 64))
(declare-fun temp559_9 () (_ BitVec 64))
(declare-fun temp559_8 () (_ BitVec 64))
(declare-fun temp559_10 () (_ BitVec 64))
(declare-fun var862370 () (_ BitVec 64))
(declare-fun var927917 () (_ BitVec 64))
(declare-fun temp559_11 () (_ BitVec 64))
(declare-fun var1713223 () (_ BitVec 64))
(declare-fun var2104674 () (_ BitVec 64))
(declare-fun temp559_12 () (_ BitVec 64))
(declare-fun var2104703 () (_ BitVec 64))
(declare-fun temp559_13 () (_ BitVec 64))
(declare-fun temp559_15 () (_ BitVec 64))
(declare-fun temp559_14 () (_ BitVec 64))
(declare-fun temp559_17 () (_ BitVec 64))
(declare-fun temp559_16 () (_ BitVec 64))
(declare-fun temp559_18 () (_ BitVec 64))
(declare-fun var2697378 () (_ BitVec 64))
(declare-fun var2762925 () (_ BitVec 64))
(declare-fun temp559_19 () (_ BitVec 64))
(declare-fun var3548231 () (_ BitVec 64))
(declare-fun var3939682 () (_ BitVec 64))
(declare-fun temp559_20 () (_ BitVec 64))
(declare-fun var3939711 () (_ BitVec 64))
(declare-fun temp559_21 () (_ BitVec 64))
(declare-fun temp559_23 () (_ BitVec 64))
(declare-fun temp559_22 () (_ BitVec 64))
(declare-fun temp559_25 () (_ BitVec 64))
(declare-fun temp559_24 () (_ BitVec 64))
(declare-fun temp559_26 () (_ BitVec 64))
(declare-fun var4532386 () (_ BitVec 64))
(declare-fun var4597933 () (_ BitVec 64))
(declare-fun temp559_27 () (_ BitVec 64))
(declare-fun var5383239 () (_ BitVec 64))
(declare-fun var5774690 () (_ BitVec 64))
(declare-fun temp559_28 () (_ BitVec 64))
(declare-fun var5774719 () (_ BitVec 64))
(declare-fun temp559_29 () (_ BitVec 64))
(declare-fun temp559_31 () (_ BitVec 64))
(declare-fun temp559_30 () (_ BitVec 64))
(declare-fun temp559_33 () (_ BitVec 64))
(declare-fun temp559_32 () (_ BitVec 64))
(declare-fun temp559_34 () (_ BitVec 64))
(declare-fun var6367394 () (_ BitVec 64))
(declare-fun var6432941 () (_ BitVec 64))
(declare-fun temp559_35 () (_ BitVec 64))
(declare-fun var7218247 () (_ BitVec 64))
(declare-fun var8461836 () (_ BitVec 64))
(declare-fun temp559_37 () (_ BitVec 64))
(declare-fun temp559_36 () (_ BitVec 64))
(declare-fun var8524787 () (_ BitVec 64))
(declare-fun var8524788 () (_ BitVec 64))
(declare-fun temp559_38 () (_ BitVec 64))
(declare-fun temp559_39 () (_ BitVec 64))
(declare-fun var8594453 () (_ BitVec 64))
(declare-fun var8660000 () (_ BitVec 64))
(declare-fun var8461854 () (_ BitVec 64))
(declare-fun temp559_40 () (_ BitVec 64))
(declare-fun var77094 () (_ BitVec 64))
(declare-fun temp559_41 () (_ BitVec 64))
(declare-fun var77135 () (_ BitVec 64))
(declare-fun var77169 () (_ BitVec 64))
(declare-fun var77223 () (_ BitVec 64))
(declare-fun temp559_42 () (_ BitVec 64))
(declare-fun var11608541 () (_ BitVec 64))
(declare-fun temp559_43 () (_ BitVec 64))
(declare-fun ARGNAME_i1_NAMEEND_NUMELEMENT () (_ BitVec 64))
(declare-fun var77268 () (_ BitVec 64))
(declare-fun temp559_44 () (_ BitVec 64))
(declare-fun temp559_45 () (_ BitVec 64))
(declare-fun ARGNAME_i2_NAMEEND_NUMELEMENT () (_ BitVec 64))
(declare-fun var77272 () (_ BitVec 64))
(declare-fun temp559_46 () (_ BitVec 64))
(declare-fun temp559_47 () (_ BitVec 64))
(declare-fun ARGNAME_i3_NAMEEND_NUMELEMENT () (_ BitVec 64))
(declare-fun var77276 () (_ BitVec 64))
(declare-fun temp559_48 () (_ BitVec 64))
(declare-fun temp559_50 () (_ BitVec 64))
(declare-fun temp559_49 () (_ BitVec 64))
(declare-fun temp559_51 () (_ BitVec 64))
(declare-fun var14885909 () (_ BitVec 64))
(declare-fun var14951456 () (_ BitVec 64))
(declare-fun var14753310 () (_ BitVec 64))
(declare-fun temp559_52 () (_ BitVec 64))
(declare-fun var15347757 () (_ BitVec 64))
(declare-fun temp559_53 () (_ BitVec 64))
(declare-fun var15413293 () (_ BitVec 64))
(declare-fun temp559_54 () (_ BitVec 64))
(declare-fun var15937581 () (_ BitVec 64))
(declare-fun temp559_56 () (_ BitVec 64))
(declare-fun temp559_55 () (_ BitVec 64))
(declare-fun temp559_57 () (_ BitVec 64))
(declare-fun var17049762 () (_ BitVec 64))
(declare-fun temp559_58 () (_ BitVec 64))
(declare-fun var17704007 () (_ BitVec 64))
(declare-fun temp559_60 () (_ BitVec 64))
(declare-fun temp559_59 () (_ BitVec 64))
(declare-fun temp559_61 () (_ BitVec 64))
(declare-fun var18686997 () (_ BitVec 64))
(declare-fun var18752544 () (_ BitVec 64))
(declare-fun temp559_62 () (_ BitVec 64))
(declare-fun var16258794 () (_ BitVec 64))
(declare-fun var16258764 () (_ BitVec 64))
(declare-fun var16258763 () (_ BitVec 64))
(declare-fun temp559_64 () (_ BitVec 64))
(declare-fun temp559_63 () (_ BitVec 64))
(declare-fun temp559_65 () (_ BitVec 64))
(declare-fun var16259272 () (_ BitVec 64))
(declare-fun temp559_66 () (_ BitVec 64))
(declare-fun var16259206 () (_ BitVec 64))
(declare-fun var16259205 () (_ BitVec 64))
(declare-fun var16259284 () (_ BitVec 64))
(declare-fun var16259320 () (_ BitVec 64))
(declare-fun temp559_67 () (_ BitVec 64))
(declare-fun var16259304 () (_ BitVec 64))
(declare-fun var16259303 () (_ BitVec 64))
(declare-fun var16259338 () (_ BitVec 64))
(declare-fun temp559_68 () (_ BitVec 64))
(declare-fun var16259339 () (_ BitVec 64))
(declare-fun temp559_70 () (_ BitVec 64))
(declare-fun temp559_69 () (_ BitVec 64))
(declare-fun temp559_72 () (_ BitVec 64))
(declare-fun temp559_71 () (_ BitVec 64))
(assert (= var76923 (bvadd ARGNAME_expand1_NAMEEND_LEN ARGNAME_i1_NAMEEND_DIM)))
(assert (= var76924
   (ite (bvsle var76923 ARGNAME_unroll_dim_NAMEEND)
        #x0000000000000001
        #x0000000000000000)))
(assert (= var76925 var76924))
(assert (= temp559_1 #x000000000000003f))
(assert (= var76926 (bvlshr ARGNAME_unroll_dim_NAMEEND temp559_1)))
(assert (= var76927 (bvor var76926 var76925)))
(assert (= temp559_2 #x0000000000000000))
(assert (= var76928 (ite (= var76927 temp559_2) #x0000000000000001 #x0000000000000000)))
(assert (= temp559_3 #x0000000000000001))
(assert (= var76928 temp559_3))
(assert (= var269666 var76923))
(assert (= temp559_4 #x0000000000000040))
(assert (= var269695
   (ite (bvsgt var269666 temp559_4) #x0000000000000001 #x0000000000000000)))
(assert (= temp559_5 #x0000000000000000))
(assert (= var269695 temp559_5))
(assert (= temp559_7 #x0000000000000000))
(assert (= temp559_6 temp559_7))
(assert (= temp559_9 #x0000000000000000))
(assert (= temp559_8 temp559_9))
(assert (= temp559_10 #x0000000000000000))
(assert (= var862370 temp559_10))
(assert (= var927917 var862370))
(assert (= temp559_11 #x0000000000000001))
(assert (= var1713223 temp559_11))
(assert (= var2104674 var76923))
(assert (= temp559_12 #x0000000000000040))
(assert (= var2104703
   (ite (bvsgt var2104674 temp559_12) #x0000000000000001 #x0000000000000000)))
(assert (= temp559_13 #x0000000000000000))
(assert (= var2104703 temp559_13))
(assert (= temp559_15 #x0000000000000000))
(assert (= temp559_14 temp559_15))
(assert (= temp559_17 #x0000000000000000))
(assert (= temp559_16 temp559_17))
(assert (= temp559_18 #x0000000000000000))
(assert (= var2697378 temp559_18))
(assert (= var2762925 var2697378))
(assert (= temp559_19 #x0000000000000001))
(assert (= var3548231 temp559_19))
(assert (= var3939682 var76923))
(assert (= temp559_20 #x0000000000000040))
(assert (= var3939711
   (ite (bvsgt var3939682 temp559_20) #x0000000000000001 #x0000000000000000)))
(assert (= temp559_21 #x0000000000000000))
(assert (= var3939711 temp559_21))
(assert (= temp559_23 #x0000000000000000))
(assert (= temp559_22 temp559_23))
(assert (= temp559_25 #x0000000000000000))
(assert (= temp559_24 temp559_25))
(assert (= temp559_26 #x0000000000000000))
(assert (= var4532386 temp559_26))
(assert (= var4597933 var4532386))
(assert (= temp559_27 #x0000000000000001))
(assert (= var5383239 temp559_27))
(assert (= var5774690 var76923))
(assert (= temp559_28 #x0000000000000040))
(assert (= var5774719
   (ite (bvsgt var5774690 temp559_28) #x0000000000000001 #x0000000000000000)))
(assert (= temp559_29 #x0000000000000000))
(assert (= var5774719 temp559_29))
(assert (= temp559_31 #x0000000000000000))
(assert (= temp559_30 temp559_31))
(assert (= temp559_33 #x0000000000000000))
(assert (= temp559_32 temp559_33))
(assert (= temp559_34 #x0000000000000000))
(assert (= var6367394 temp559_34))
(assert (= var6432941 var6367394))
(assert (= temp559_35 #x0000000000000001))
(assert (= var7218247 temp559_35))
(assert (= var8461836 var76923))
(assert (= temp559_37 #x0000000000000000))
(assert (= temp559_36 temp559_37))
(assert (= var8524787 var8461836))
(assert (= var8524788
   (ite (bvslt temp559_36 var8524787) #x0000000000000001 #x0000000000000000)))
(assert (= temp559_38 (ite (= var8524788 #x0000000000000001) var8461836 temp559_36)))
(assert (= temp559_39 #x0000000000000000))
(assert (= var8594453 temp559_39))
(assert (= var8660000 var8594453))
(assert (= var8461854 var8660000))
(assert (= temp559_40 #xffffffffffffffff))
(assert (= var77094 temp559_40))
(assert (= temp559_41 #x0000000000000000))
(assert (= var77135 temp559_41))
(assert (= var77169 var77135))
(assert (= var77223 var77169))
(assert (= temp559_42 #x0000000000000001))
(assert (= var11608541 temp559_42))
(assert (= temp559_43 #x0000000000000000))
(assert (= var77268
   (ite (= ARGNAME_i1_NAMEEND_NUMELEMENT temp559_43)
        #x0000000000000001
        #x0000000000000000)))
(assert (= temp559_44 #x0000000000000000))
(assert (= var77268 temp559_44))
(assert (= temp559_45 #x0000000000000000))
(assert (= var77272
   (ite (= ARGNAME_i2_NAMEEND_NUMELEMENT temp559_45)
        #x0000000000000001
        #x0000000000000000)))
(assert (= temp559_46 #x0000000000000000))
(assert (= var77272 temp559_46))
(assert (= temp559_47 #x0000000000000000))
(assert (= var77276
   (ite (= ARGNAME_i3_NAMEEND_NUMELEMENT temp559_47)
        #x0000000000000001
        #x0000000000000000)))
(assert (= temp559_48 #x0000000000000000))
(assert (= var77276 temp559_48))
(assert (= temp559_50 #x0000000000000000))
(assert (= temp559_49 temp559_50))
(assert (= temp559_51 #x0000000000000000))
(assert (= var14885909 temp559_51))
(assert (= var14951456 var14885909))
(assert (= var14753310 var14951456))
(assert (= temp559_52 #x0000000000000001))
(assert (= var15347757 temp559_52))
(assert (= temp559_53 #x0000000000000001))
(assert (= var15413293 temp559_53))
(assert (= temp559_54 #x0000000000000001))
(assert (= var15937581 temp559_54))
(assert (= temp559_56 #x0000000000000000))
(assert (= temp559_55 temp559_56))
(assert (= temp559_57 #x0000000000000000))
(assert (= var17049762 temp559_57))
(assert (= temp559_58 #x0000000000000001))
(assert (= var17704007 temp559_58))
(assert (= temp559_60 #x0000000000000000))
(assert (= temp559_59 temp559_60))
(assert (= temp559_61 #x0000000000000000))
(assert (= var18686997 temp559_61))
(assert (= var18752544 var18686997))
(assert (= temp559_62 #x0000000000000001))
(assert (= var16258794 temp559_62))
(assert (= var16258764 var16258794))
(assert (= var16258763 var16258764))
(assert (= temp559_64 #xffffffffffffffff))
(assert (= temp559_63 temp559_64))
(assert (= temp559_65 #x0000000000000000))
(assert (= var16259272 temp559_65))
(assert (= temp559_66 #x0000000000000001))
(assert (= var16259206 (bvadd var16259272 temp559_66)))
(assert (= var16259205 var16259206))
(assert (= var16259284 var16259205))
(assert (= var16259320 var16259284))
(assert (= temp559_67 #x0000000000000001))
(assert (= var16259304 (bvadd var16259320 temp559_67)))
(assert (= var16259303 var16259304))
(assert (= var16259338 var16259303))
(assert (= temp559_68 #x0000000000000001))
(assert (= var16259339 (bvadd var16259338 temp559_68)))
(assert (= temp559_70 #x0000000000000003))
(assert (= temp559_69 temp559_70))
(assert (= temp559_72 #x0000000000000003))
(assert (= temp559_71 temp559_72))
(model-add var76923
           ()
           (_ BitVec 64)
           (bvadd ARGNAME_expand1_NAMEEND_LEN ARGNAME_i1_NAMEEND_DIM))
(model-add var76924
           ()
           (_ BitVec 64)
           (ite (bvsle (bvadd ARGNAME_expand1_NAMEEND_LEN
                              ARGNAME_i1_NAMEEND_DIM)
                       ARGNAME_unroll_dim_NAMEEND)
                #x0000000000000001
                #x0000000000000000))
(model-add var76925
           ()
           (_ BitVec 64)
           (ite (bvsle (bvadd ARGNAME_expand1_NAMEEND_LEN
                              ARGNAME_i1_NAMEEND_DIM)
                       ARGNAME_unroll_dim_NAMEEND)
                #x0000000000000001
                #x0000000000000000))
(model-add temp559_1 () (_ BitVec 64) #x000000000000003f)
(model-add var76926
           ()
           (_ BitVec 64)
           (concat #b000000000000000000000000000000000000000000000000000000000000000
                   ((_ extract 63 63) ARGNAME_unroll_dim_NAMEEND)))
(model-add var76927
           ()
           (_ BitVec 64)
           (bvor (concat #b000000000000000000000000000000000000000000000000000000000000000
                         ((_ extract 63 63) ARGNAME_unroll_dim_NAMEEND))
                 (ite (bvsle (bvadd ARGNAME_expand1_NAMEEND_LEN
                                    ARGNAME_i1_NAMEEND_DIM)
                             ARGNAME_unroll_dim_NAMEEND)
                      #x0000000000000001
                      #x0000000000000000)))
(model-add temp559_2 () (_ BitVec 64) #x0000000000000000)
(model-add temp559_3 () (_ BitVec 64) #x0000000000000001)
(model-add var76928 () (_ BitVec 64) #x0000000000000001)
(model-del k!0)
(model-add ARGNAME_expand1_NAMEEND_LEN
           ()
           (_ BitVec 64)
           (bvsub k!0 ARGNAME_i1_NAMEEND_DIM))
(model-del k!1)
(model-add k!0
           ()
           (_ BitVec 64)
           (ite (or k!1 (= ARGNAME_unroll_dim_NAMEEND #x7fffffffffffffff))
                ARGNAME_unroll_dim_NAMEEND
                (bvadd ARGNAME_unroll_dim_NAMEEND #x0000000000000001)))





